certificates/rado_a13_c212_N37.drat
16 -34 -36 -37 0
-34 -36 -37 0
d 16 -34 -36 -37 0
-16 -36 -37 0
-36 -37 0
d -34 -36 -37 0
-20 34 -37 0
34 -37 0
d -20 34 -37 0
15 30 -16 36 0
20 -37 0
-37 0
-20 -34 0
-34 0
20 0
-16 0
12 0
33 0
30 0
-15 0
11 0
19 0
32 0
17 0
18 0
0
